(set-info :smt-lib-version 2.6)
(set-logic ALIA)
(set-info :source |
Generated by the tool Ultimate Automizer [1,2] which implements
an automata theoretic approach [3] to software verification.

This SMT script belongs to a set of SMT scripts that was generated by
applying Ultimate Automizer to benchmarks [4] from the SV-COMP 2023 [5,6].
This script may not contain all SMT commands that Ultimate Automizer
issued. In order to meet the restrictions for SMT-COMP benchmarks 
we dropped the commands for getting values (resp. models), 
unsatisfiable cores, and interpolants.

2023-03-21, Matthias Heizmann (heizmann@informatik.uni-freiburg.de)

[1] https://ultimate.informatik.uni-freiburg.de/automizer/
[2] Matthias Heizmann, Max Barth, Daniel Dietsch, Leonard Fichtner,
     Jochen Hoenicke, Dominik Klumpp, Mehdi Naouar, Tanja Schindler,
     Frank Schüssele, Andreas Podelski: Ultimate Automizer and the
     CommuHash Normal Form (Competition Contribution). TACAS 2023
[3] Matthias Heizmann, Jochen Hoenicke, Andreas Podelski: Software Model
     Checking for People Who Love Automata. CAV 2013
[4] https://github.com/sosy-lab/sv-benchmarks
[5] Dirk Beyer: Competition on Software Verification and
     Witness Validation: SV-COMP 2023.  TACAS 2023
[6] https://sv-comp.sosy-lab.org/2023/
|)
(set-info :license "https://creativecommons.org/licenses/by/4.0/")
(set-info :category "industrial")
(set-info :status unknown)
(declare-fun ~unnamed0~0~P_ALL () Int)
(declare-fun ~unnamed0~0~P_PID () Int)
(declare-fun ~unnamed0~0~P_PGID () Int)
(declare-fun |c_#memory_$Pointer$.base| () (Array Int (Array Int Int)))
(declare-fun |c_#memory_$Pointer$.offset| () (Array Int (Array Int Int)))
(declare-fun |c_#memory_int| () (Array Int (Array Int Int)))
(declare-fun |c_ULTIMATE.start_main_~len~0#1| () Int)
(declare-fun |c_ULTIMATE.start_main_~s~0#1.base| () Int)
(declare-fun |c_ULTIMATE.start_main_~s~0#1.offset| () Int)
(declare-fun |c_ULTIMATE.start_dll_circular_create_#res#1.base| () Int)
(declare-fun |c_ULTIMATE.start_dll_circular_create_#res#1.offset| () Int)
(declare-fun |c_ULTIMATE.start_dll_circular_create_~new_head~0#1.base| () Int)
(declare-fun |c_ULTIMATE.start_dll_circular_create_~new_head~0#1.offset| () Int)
(declare-fun |c_ULTIMATE.start_dll_circular_create_~head~0#1.base| () Int)
(declare-fun |c_ULTIMATE.start_dll_circular_create_~head~0#1.offset| () Int)
(declare-fun |c_ULTIMATE.start_dll_circular_create_~last~0#1.base| () Int)
(declare-fun |c_ULTIMATE.start_dll_circular_update_at_~head#1.base| () Int)
(declare-fun |c_ULTIMATE.start_dll_circular_update_at_~head#1.base_primed| () Int)
(declare-fun |c_ULTIMATE.start_dll_circular_update_at_~head#1.offset| () Int)
(declare-fun |c_ULTIMATE.start_dll_circular_update_at_~head#1.offset_primed| () Int)
(declare-fun |c_ULTIMATE.start_dll_circular_update_at_~index#1| () Int)
(declare-fun |c_ULTIMATE.start_dll_circular_update_at_~index#1_primed| () Int)
(assert (= ~unnamed0~0~P_ALL 0))
(assert (= ~unnamed0~0~P_PID 1))
(assert (= 2 ~unnamed0~0~P_PGID))
(assert (and (= |c_ULTIMATE.start_dll_circular_update_at_~head#1.base_primed| (select (select |c_#memory_$Pointer$.base| |c_ULTIMATE.start_dll_circular_update_at_~head#1.base|) |c_ULTIMATE.start_dll_circular_update_at_~head#1.offset|)) (= |c_ULTIMATE.start_dll_circular_update_at_~index#1| (+ |c_ULTIMATE.start_dll_circular_update_at_~index#1_primed| 1)) (= |c_ULTIMATE.start_dll_circular_update_at_~head#1.offset_primed| (select (select |c_#memory_$Pointer$.offset| |c_ULTIMATE.start_dll_circular_update_at_~head#1.base|) |c_ULTIMATE.start_dll_circular_update_at_~head#1.offset|)) (< 0 |c_ULTIMATE.start_dll_circular_update_at_~index#1|)))
(assert (let ((.cse0 (select (select |c_#memory_$Pointer$.base| |c_ULTIMATE.start_dll_circular_create_~new_head~0#1.base|) 0)) (.cse2 (select |c_#memory_$Pointer$.base| |c_ULTIMATE.start_dll_circular_update_at_~head#1.base|)) (.cse4 (select |c_#memory_$Pointer$.offset| |c_ULTIMATE.start_dll_circular_update_at_~head#1.base|)) (.cse3 (+ 16 |c_ULTIMATE.start_dll_circular_update_at_~head#1.offset|)) (.cse1 (* |c_ULTIMATE.start_main_~len~0#1| 2))) (and (= .cse0 |c_ULTIMATE.start_dll_circular_create_~last~0#1.base|) (forall ((v_ArrVal_746 (Array Int Int)) (v_ArrVal_748 Int) (v_ArrVal_747 Int)) (<= .cse1 (+ (select (select (store |c_#memory_int| |c_ULTIMATE.start_dll_circular_update_at_~head#1.base| v_ArrVal_746) (select (select (store |c_#memory_$Pointer$.base| |c_ULTIMATE.start_dll_circular_update_at_~head#1.base| (store .cse2 .cse3 v_ArrVal_748)) |c_ULTIMATE.start_main_~s~0#1.base|) |c_ULTIMATE.start_main_~s~0#1.offset|)) (+ 16 (select (select (store |c_#memory_$Pointer$.offset| |c_ULTIMATE.start_dll_circular_update_at_~head#1.base| (store .cse4 .cse3 v_ArrVal_747)) |c_ULTIMATE.start_main_~s~0#1.base|) |c_ULTIMATE.start_main_~s~0#1.offset|))) 1))) (not (= |c_ULTIMATE.start_dll_circular_create_~last~0#1.base| |c_ULTIMATE.start_dll_circular_create_~head~0#1.base|)) (not (= (select .cse2 |c_ULTIMATE.start_main_~s~0#1.offset|) |c_ULTIMATE.start_dll_circular_update_at_~head#1.base|)) (= (select (select |c_#memory_$Pointer$.offset| |c_ULTIMATE.start_dll_circular_create_~head~0#1.base|) 0) 0) (= |c_ULTIMATE.start_main_~s~0#1.offset| 0) (not (= .cse0 |c_ULTIMATE.start_dll_circular_create_~new_head~0#1.base|)) (= |c_ULTIMATE.start_dll_circular_create_~new_head~0#1.offset| 0) (= |c_ULTIMATE.start_dll_circular_create_#res#1.offset| 0) (= 0 |c_ULTIMATE.start_dll_circular_create_~head~0#1.offset|) (= (select (select |c_#memory_$Pointer$.offset| |c_ULTIMATE.start_dll_circular_create_#res#1.base|) 0) 0) (= (select (select |c_#memory_int| (select (select |c_#memory_$Pointer$.base| |c_ULTIMATE.start_main_~s~0#1.base|) 0)) (+ (select (select |c_#memory_$Pointer$.offset| |c_ULTIMATE.start_main_~s~0#1.base|) 0) 16)) 3) (= (select .cse4 |c_ULTIMATE.start_main_~s~0#1.offset|) 0) (= |c_ULTIMATE.start_dll_circular_create_~last~0#1.base| (select (select |c_#memory_$Pointer$.base| |c_ULTIMATE.start_dll_circular_create_~head~0#1.base|) 0)) (forall ((v_ArrVal_746 (Array Int Int)) (v_ArrVal_748 Int) (v_ArrVal_747 Int)) (<= (+ (select (select (store |c_#memory_int| |c_ULTIMATE.start_dll_circular_update_at_~head#1.base| v_ArrVal_746) (select (select (store |c_#memory_$Pointer$.base| |c_ULTIMATE.start_dll_circular_update_at_~head#1.base| (store .cse2 .cse3 v_ArrVal_748)) |c_ULTIMATE.start_main_~s~0#1.base|) |c_ULTIMATE.start_main_~s~0#1.offset|)) (+ 16 (select (select (store |c_#memory_$Pointer$.offset| |c_ULTIMATE.start_dll_circular_update_at_~head#1.base| (store .cse4 .cse3 v_ArrVal_747)) |c_ULTIMATE.start_main_~s~0#1.base|) |c_ULTIMATE.start_main_~s~0#1.offset|))) 1) .cse1)) (= |c_ULTIMATE.start_main_~s~0#1.base| |c_ULTIMATE.start_dll_circular_update_at_~head#1.base|) (not (= (select (select |c_#memory_$Pointer$.base| |c_ULTIMATE.start_dll_circular_create_#res#1.base|) 0) |c_ULTIMATE.start_dll_circular_create_#res#1.base|)) (<= 0 |c_ULTIMATE.start_dll_circular_update_at_~head#1.offset|) (= (select (select |c_#memory_$Pointer$.offset| |c_ULTIMATE.start_dll_circular_create_~new_head~0#1.base|) 0) 0))))
(assert (not (let ((.cse1 (select |c_#memory_$Pointer$.base| |c_ULTIMATE.start_dll_circular_create_#res#1.base|))) (let ((.cse0 (select .cse1 0))) (and (not (= |c_ULTIMATE.start_dll_circular_create_#res#1.base| .cse0)) (exists ((v_DerPreprocessor_1 (Array Int Int)) (v_arrayElimArr_3 (Array Int Int))) (and (= (select v_arrayElimArr_3 8) (select .cse1 8)) (= (select |c_#memory_$Pointer$.base| .cse0) (select (store (store (store (store |c_#memory_$Pointer$.base| .cse0 v_DerPreprocessor_1) |c_ULTIMATE.start_dll_circular_create_#res#1.base| v_arrayElimArr_3) .cse0 v_DerPreprocessor_1) |c_ULTIMATE.start_dll_circular_create_#res#1.base| v_arrayElimArr_3) .cse0)))) (= |c_ULTIMATE.start_main_~len~0#1| 2) (= |c_ULTIMATE.start_dll_circular_create_#res#1.offset| 0))))))
(check-sat)
(exit)
